<number of tasks>
20

<cycle time>
1000

<order strength>
0,163


<task times>
1 215
2 158
3 135
4 68
5 101
6 94
7 201
8 201
9 45
10 92
11 133
12 104
13 165
14 56
15 160
16 118
17 148
18 166
19 298
20 199

<precedence relations>
1,7
2,8
3,9
5,11
6,10
7,12
8,14
10,13
12,15
12,18
13,16
13,17
15,19
16,20

<end>
